% number of games is 37

num = 37;
cap = 5;
refill = 2;
fun = [-20, -4, 3, 9, -9, -12, -19, 2, 7, 6, -20, 1, 3, 19, -11, 11, -1, 3, -13, -9, -1, 7, -2, -1, 4, -14, -5, -8, 20, -12, 3, -19, 15, 16, -4, 14, 10];
